
Gurobi 11.0.2 (win64) logging started Mon Nov 25 15:02:44 2024

Set parameter LogFile to value ".\Experiments\Verification_16_eps0.0001_focus\Logs\vit_12_4_6_12_i4_r1_c4.log"
Set parameter TimeLimit to value 43200
Gurobi Optimizer version 11.0.2 build v11.0.2rc0 (win64 - Windows 10.0 (19045.2))

CPU model: Intel(R) Core(TM) i7-10750H CPU @ 2.60GHz, instruction set [SSE2|AVX|AVX2]
Thread count: 6 physical cores, 12 logical processors, using up to 12 threads

Optimize a model with 14283 rows, 14235 columns and 55586 nonzeros
Model fingerprint: 0x04b40a07
Model has 4150 quadratic constraints
Model has 840 general constraints
Variable types: 13635 continuous, 600 integer (600 binary)
Coefficient statistics:
  Matrix range     [9e-05, 2e+02]
  QMatrix range    [1e+00, 1e+00]
  QLMatrix range   [1e+00, 1e+00]
  Objective range  [1e+00, 1e+00]
  Bounds range     [1e-04, 2e+03]
  RHS range        [1e-04, 7e+02]
  QRHS range       [1e-06, 1e-06]
Presolve removed 5645 rows and 6283 columns
Presolve time: 0.14s
Presolved: 26568 rows, 7953 columns, 87004 nonzeros
Presolved model has 3901 bilinear constraint(s)
Presolved model has 570 nonlinear constraint(s)

Solving non-convex MINLP

Variable types: 7311 continuous, 642 integer (642 binary)

Root relaxation: objective 6.753448e+01, 12872 iterations, 2.58 seconds (3.66 work units)

    Nodes    |    Current Node    |     Objective Bounds      |     Work
 Expl Unexpl |  Obj  Depth IntInf | Incumbent    BestBd   Gap | It/Node Time

     0     0   67.53448    0 3500          -   67.53448      -     -    9s
     0     0   67.53448    0 3723          -   67.53448      -     -   21s
     0     0   67.53448    0 3578          -   67.53448      -     -   21s
     0     0   67.53448    0 3349          -   67.53448      -     -   48s
     0     0   67.53448    0 3433          -   67.53448      -     -   55s
     0     0   67.53448    0 3284          -   67.53448      -     -  114s
     0     0   67.53448    0 3506          -   67.53448      -     -  139s
     0     0   67.53448    0 3555          -   67.53448      -     -  185s
     0     0   67.53448    0 3519          -   67.53448      -     -  197s
     0     0   67.53448    0 3512          -   67.53448      -     -  209s
     0     0   67.53448    0 3465          -   67.53448      -     -  256s
     0     1   67.53448    0 3465          -   67.53448      -     -  811s
     4     2   67.53448    3 3494          -   67.53448      -  3305  815s
     8     4   67.53448    5 3579          -   67.53448      -  5128  828s
    10     8   67.53448    6 3571          -   67.53448      -  9133  846s
    20    20   67.53448    8 3486          -   67.53448      -  8932  850s
    32    32   67.53448   10 3455          -   67.53448      -  6243  882s
    50    85   67.53448   13 3451          -   67.53448      -  7256  885s
    91   164   67.53448   20 3457          -   67.53448      -  4119  924s
   170   219   67.53448   24 3460          -   67.53448      -  2985  983s
   225   658   67.53448   28 3402          -   67.53448      -  3334 1028s
   668   916   67.53448   58 3400          -   67.53448      -  1510 1130s
   932  1156   67.53448  102 3344          -   67.53448      -  1491 1286s
  1180  1500   67.53448  111 3379          -   67.53448      -  1554 1400s
  1532  1692   67.53448  133 3329          -   67.53448      -  1509 1531s
  1766  2013   67.53448  161 3311          -   67.53448      -  1555 1697s
  2099  2377   67.53448  201 3307          -   67.53448      -  1579 1821s
  2469  2765   67.53431  288 3215          -   67.53448      -  1572 2000s
  2877  3003   67.53432  335 3215          -   67.53448      -  1555 2200s
  3143  3154   67.53432  364 3229          -   67.53448      -  1610 2395s
  3318  3504   67.53432  367 3213          -   67.53448      -  1687 2606s
  3674  3750   67.53430  397 3267          -   67.53448      -  1764 3117s
  3946  3866  postponed  411               -   67.53448      -  1926 3411s
  4076  4192 infeasible  411               -   67.53448      -  2062 3610s
  4428  4416 infeasible  120               -   67.53448      -  2090 3933s
  4678  4698   67.53448  181 3423          -   67.53448      -  2182 4342s
  4994  4925   67.53448  256 3355          -   67.53448      -  2254 4706s
  5259  5132 infeasible  295               -   67.53448      -  2328 5044s
  5518  5404   67.53448  311 3285          -   67.53448      -  2404 5370s
  5829  5405   67.53448  112    6          -   67.53448      -  2449 5472s
  5831  5406   67.53448   84    6          -   67.53448      -  2448 5501s
  5832  5407   67.53430  306  122          -   67.53448      -  2448 5543s
  5833  5408   67.53448  126   92          -   67.53448      -  2447 5545s
  5834  5408   67.53448  526    5          -   67.53448      -  2447 5589s
  5835  5409   67.53448   48   26          -   67.53448      -  2446 5592s
  5836  5410   67.53448  160    5          -   67.53448      -  2446 5643s
  5837  5410   67.53448  260   50          -   67.53448      -  2446 5647s
  5838  5411   67.53448  369    1          -   67.53448      -  2445 5695s
  5839  5412   67.53448  354   42          -   67.53448      -  2445 5701s
  5840  5412   67.53448  160    0          -   67.53448      -  2444 5719s
  5842  5415   67.53448  444    6          -   67.53448      -  2495 5731s
  5844  5416   67.53448  390   12          -   67.53448      -  2495 5757s
  5845  5417   67.53448   47  110          -   67.53448      -  2494 5779s
  5846  5418   67.53448  368   96          -   67.53448      -  2494 5802s
  5847  5418   67.53448  516    8          -   67.53448      -  2493 5816s
  5848  5419   67.53448  215   88          -   67.53448      -  2493 5830s
  5849  5420   67.53448  233    4          -   67.53448      -  2492 5877s
  5850  5420   67.53448  437   41          -   67.53448      -  2492 5881s
  5851  5421   67.53448   51    3          -   67.53448      -  2492 5933s
  5852  5422   67.53448  289   67          -   67.53448      -  2491 5945s
  5853  5422   67.53448  375    0          -   67.53448      -  2491 8376s
  5855  5425   67.53448  567    6          -   67.53448      -  2538 8393s
  5857  5426   67.53448  332    0          -   67.53448      -  2537 8413s
  5858  5427   67.53448  338   80          -   67.53448      -  2536 8460s
  5859  5428   67.53448  468   52          -   67.53448      -  2536 8466s
  5860  5428   67.53448  425    0          -   67.53448      -  2535 8500s
  5861  5429   67.53448  145    7          -   67.53448      -  2535 8508s
  5862  5430   67.53448   66    6          -   67.53448      -  2534 8520s
  5864  5431   67.53448   33    6          -   67.53448      -  2534 8544s
  5865  5432   67.53448   98   15          -   67.53448      -  2533 8547s
  5866  5432   67.53285   85    1          -   67.53448      -  2533 10978s
  5868  5435   67.53448  365    6          -   67.53448      -  2569 10989s
  5870  5436   67.53448  406   37          -   67.53448      -  2568 11069s
  5871  5437   67.53448  163   52          -   67.53448      -  2568 11107s
  5872  5438   67.53448   52   37          -   67.53448      -  2568 11120s
  5873  5438   67.53448   87    0          -   67.53448      -  2567 11155s
  5874  5439   67.53448  424    7          -   67.53448      -  2567 11163s
  5875  5440   67.53448  390    0          -   67.53448      -  2566 11179s
  5876  5440   67.53448  221   10          -   67.53448      -  2566 11198s
  5877  5441   67.53448  369    2          -   67.53448      -  2565 11252s
  5878  5442   67.53448  259   10          -   67.53448      -  2565 11277s

Cutting planes:
  Learned: 8
  Implied bound: 8
  Flow cover: 3
  RLT: 491
  Relax-and-lift: 2

Explored 5878 nodes (15658299 simplex iterations) in 12254.16 seconds (17620.32 work units)
Thread count was 12 (of 12 available processors)

Solution count 0

Solve interrupted
Best objective -, best bound 6.753448281166e+01, gap -
